Minimize
  - 9 y_0 - 6 y_1 - 10 y_2 - 6 y_3 - 8 y_4 - 4 y_5 - 4 y_6 - 8 y_7 - 8 y_8
   - 10 y_9 - 8 y_10 - 9 y_11 - 4 y_12 - 8 y_13 - 4 y_14 - 5 y_15 - 11 y_16
   - 4 y_17 - 3 y_18 - 4 y_19 - 8 y_20 - 6 y_21 - 8 y_22 - 7 y_23 - 6 y_24
   - 3 y_25 - 11 y_26 - 4 y_28 - 5 y_29 - 6 y_30 - 9 y_31 - 7 y_32 - 8 y_33
   - 6 y_34 - 11 y_35 - 8 y_36 - 3 y_37 - y_38 - 5 y_39 - 2 y_40 - 5 y_41
   - 7 y_42 - 7 y_43 - 5 y_44 - 7 y_45 - 2 y_46 - 11 y_47 - 4 y_48 - 9 y_49
   + 314 Constant
Subject To
 c_0: y_16 = 1
 c_1_0: y_0 + y_2 + y_13 + y_45 >= 1
 c_1_1: y_1 + y_3 + y_7 + y_21 + y_23 + y_32 + y_34 + y_42 + y_44 >= 1
 c_1_2: y_0 + y_2 + y_4 + y_11 + y_13 >= 1
 c_1_3: y_1 + y_3 + y_12 + y_21 + y_23 + y_32 + y_34 + y_42 + y_44 >= 1
 c_1_4: y_2 + y_4 + y_8 + y_11 + y_13 + y_20 + y_33 >= 1
 c_1_5: y_5 + y_15 + y_17 + y_18 + y_19 + y_24 + y_28 + y_30 + y_48 >= 1
 c_1_6: y_6 + y_15 + y_18 + y_19 + y_25 + y_28 + y_39 >= 1
 c_1_7: y_1 + y_7 + y_32 + y_36 + y_42 >= 1
 c_1_8: y_4 + y_8 + y_11 + y_13 + y_20 + y_22 + y_33 + y_43 + y_49 >= 1
 c_1_9: y_9 + y_26 >= 1
 c_1_10: y_10 + y_21 + y_31 + y_36 >= 1
 c_1_11: y_2 + y_4 + y_8 + y_11 + y_13 + y_20 + y_33 >= 1
 c_1_12: y_3 + y_12 + y_14 + y_34 + y_37 + y_40 + y_44 >= 1
 c_1_13: y_0 + y_2 + y_4 + y_8 + y_11 + y_13 + y_20 + y_30 + y_33 >= 1
 c_1_14: y_12 + y_14 + y_29 + y_37 + y_40 + y_41 + y_44 >= 1
 c_1_15: y_5 + y_6 + y_15 + y_17 + y_19 + y_28 + y_30 + y_39 + y_48 >= 1
 c_1_16: y_16 + y_35 + y_47 + y_49 >= 1
 c_1_17: y_5 + y_15 + y_17 + y_18 + y_19 + y_24 + y_28 + y_48 >= 1
 c_1_18: y_5 + y_6 + y_17 + y_18 + y_19 + y_25 + y_28 + y_38 + y_46 + y_48
   >= 1
 c_1_19: y_5 + y_6 + y_15 + y_17 + y_18 + y_19 + y_25 + y_28 + y_30 + y_39
   + y_48 >= 1
 c_1_20: y_4 + y_8 + y_11 + y_13 + y_20 + y_30 + y_33 >= 1
 c_1_21: y_1 + y_3 + y_10 + y_21 + y_23 + y_29 + y_32 + y_34 + y_36 + y_41
   + y_44 >= 1
 c_1_22: y_8 + y_22 + y_43 + y_49 >= 1
 c_1_23: y_1 + y_3 + y_21 + y_23 + y_32 + y_34 + y_36 + y_42 + y_44 >= 1
 c_1_24: y_5 + y_17 + y_24 + y_29 + y_30 + y_41 + y_43 >= 1
 c_1_25: y_6 + y_18 + y_19 + y_25 + y_28 + y_46 >= 1
 c_1_26: y_9 + y_26 >= 1
 c_1_27: y_27 + y_38 + y_46 >= 1
 c_1_28: y_5 + y_6 + y_15 + y_17 + y_18 + y_19 + y_25 + y_28 + y_48 >= 1
 c_1_29: y_14 + y_21 + y_24 + y_29 + y_41 + y_43 + y_44 >= 1
 c_1_30: y_5 + y_13 + y_15 + y_19 + y_20 + y_24 + y_30 + y_48 >= 1
 c_1_31: y_10 + y_31 + y_36 >= 1
 c_1_32: y_1 + y_3 + y_7 + y_21 + y_23 + y_32 + y_34 + y_36 + y_42 + y_44
   >= 1
 c_1_33: y_4 + y_8 + y_11 + y_13 + y_20 + y_33 >= 1
 c_1_34: y_1 + y_3 + y_12 + y_21 + y_23 + y_32 + y_34 + y_44 >= 1
 c_1_35: y_16 + y_35 + y_47 + y_49 >= 1
 c_1_36: y_7 + y_10 + y_21 + y_23 + y_31 + y_32 + y_36 >= 1
 c_1_37: y_12 + y_14 + y_37 + y_40 >= 1
 c_1_38: y_18 + y_27 + y_38 + y_40 + y_46 >= 1
 c_1_39: y_6 + y_15 + y_19 + y_39 >= 1
 c_1_40: y_12 + y_14 + y_37 + y_38 + y_40 >= 1
 c_1_41: y_14 + y_21 + y_24 + y_29 + y_41 + y_44 >= 1
 c_1_42: y_1 + y_3 + y_7 + y_23 + y_32 + y_42 >= 1
 c_1_43: y_8 + y_22 + y_24 + y_29 + y_43 >= 1
 c_1_44: y_1 + y_3 + y_12 + y_14 + y_21 + y_23 + y_29 + y_32 + y_34 + y_41
   + y_44 >= 1
 c_1_45: y_0 + y_45 >= 1
 c_1_46: y_18 + y_25 + y_27 + y_38 + y_46 >= 1
 c_1_47: y_16 + y_35 + y_47 >= 1
 c_1_48: y_5 + y_15 + y_17 + y_18 + y_19 + y_28 + y_30 + y_48 >= 1
 c_1_49: y_8 + y_16 + y_22 + y_35 + y_49 >= 1
Bounds
 Constant = 1
Binaries
 y_0 y_1 y_2 y_3 y_4 y_5 y_6 y_7 y_8 y_9 y_10 y_11 y_12 y_13 y_14 y_15 y_16
 y_17 y_18 y_19 y_20 y_21 y_22 y_23 y_24 y_25 y_26 y_27 y_28 y_29 y_30 y_31
 y_32 y_33 y_34 y_35 y_36 y_37 y_38 y_39 y_40 y_41 y_42 y_43 y_44 y_45 y_46
 y_47 y_48 y_49
End
